(set-logic HORN)
(declare-rel inv1 ( (Array Int Int) Int Int Int))(declare-rel inv2 ( (Array Int Int) Int Int Int Int))(declare-rel fail ( ))(forall ((a (Array Int Int)) (min Int) (N Int)) (! (inv1 a 0 min N) ))(forall ((min Int) (i Int) (a (Array Int Int)) (i1 Int) (min1 Int) (N Int))
  (! (let ((a!1 (= min1 (ite (> min (select a i)) (select a i) min))))
       (=> (and (inv1 a i min N) (< i N) a!1 (= i1 (+ i 1))) (inv1 a i1 min1 N)))
     ))(forall ((i Int) (a (Array Int Int)) (min Int) (max Int) (N Int))
  (! (=> (and (inv1 a i min N) (>= i N)) (inv2 a 0 min max N)) ))(forall ((max Int)
         (i Int)
         (a (Array Int Int))
         (i1 Int)
         (min Int)
         (max1 Int)
         (N Int))
  (! (let ((a!1 (= max1 (ite (< max (select a i)) (select a i) max))))
       (=> (and (inv2 a i min max N) (< i N) a!1 (= i1 (+ i 1)))
           (inv2 a i1 min max1 N)))
     ))(forall ((a (Array Int Int)) (i Int) (i1 Int) (N Int) (min Int) (max Int))
  (! (=> (and (inv2 a i min max N)
              (>= i N)
              (< 0 i1)
              (< i1 N)
              (not (<= min max)))
         fail)
     ))(assert (not fail))
(check-sat)